Route #1: 53 11 14 59 66 65 38 10
Route #2: 40 39 9 50 18 55 25 31 72 58 12
Route #3: 68 2 33 63 23 56 49 24 32 44 3 16
Route #4: 51 73 1 43 41 42 64 22 61 21 74 28 62
Route #5: 4 5 37 20 70 60 71 69 36 47 48 30 75
Route #6: 7 35 8 19 54 13 57 15 29 45 27 52 34
Route #7: 67 46 26 17 6
Cost 747